4 
5  51 
6  06 21 36 51 
7  06 21 36 51 
8  06 21 36 51 
9  06 21 36 51 
10  06 21 36 51 
11  06 21 36 51 
12  06 21 36 51 
13  06 21 36 51 
14  06 21 36 51 
15  06 21 36 51 
16  06 21 36 51 
17  06 21 36 52 
18  07 21 36 51 
19  06 21 36 51 
20  06 21 36 51 
21  06 21 36 51 
22  09 24 44 
23 
